  	
  &CONTROL
    prefix='water',
    calculation = 'scf'
    restart_mode='from_scratch',
    pseudo_dir = '/home/paolo/water_2/pp/'
    outdir = './ecut_file'
  /
  &SYSTEM
    ibrav           = 1
    celldm(1)       = 30
    nat             = 3
    ntyp            = 2
    nbnd            = 10
    ecutwfc         = 20
    assume_isolated ='mp'
  /
  &electrons
    diago_full_acc = .TRUE.
/
ATOMIC_SPECIES
H  1.00794   H_ONCV_PBE-1.2.upf
O 15.999 O_ONCV_PBE-1.2.upf
ATOMIC_POSITIONS angstrom
O                2.0117535901        2.4187291367        0.0157800323
H                3.0568614517        2.3127773482       -0.0083151813
H                1.7671549581        1.4228935152       -0.2087748510
K_POINTS {gamma}

